GLPSOL--GLPK LP/MIP Solver 5.0
Parameter(s) specified in the command line:
 --cpxlp --first inputs/new_tr/order/dag78_default_input.lp -o solutions/new_tr/dag78_default_input.lp
Reading problem data from 'inputs/new_tr/order/dag78_default_input.lp'...
inputs/new_tr/order/dag78_default_input.lp:9298: warning: lower bound of variable 'm_6_6' redefined
inputs/new_tr/order/dag78_default_input.lp:9298: warning: upper bound of variable 'm_6_6' redefined
8698 rows, 3404 columns, 25198 non-zeros
3404 integer variables, 2811 of which are binary
12660 lines were read
GLPK Integer Optimizer 5.0
8698 rows, 3404 columns, 25198 non-zeros
3404 integer variables, 2811 of which are binary
Preprocessing...
442 hidden packing inequaliti(es) were detected
178 hidden covering inequaliti(es) were detected
818 constraint coefficient(s) were reduced
4830 rows, 1804 columns, 13288 non-zeros
1804 integer variables, 1763 of which are binary
Scaling...
 A: min|aij| =  1.000e+00  max|aij| =  2.621e+05  ratio =  2.621e+05
GM: min|aij| =  3.895e-01  max|aij| =  2.567e+00  ratio =  6.591e+00
EQ: min|aij| =  1.562e-01  max|aij| =  1.000e+00  ratio =  6.402e+00
2N: min|aij| =  1.250e-01  max|aij| =  1.750e+00  ratio =  1.400e+01
Constructing initial basis...
Size of triangular part is 4421
Solving LP relaxation...
GLPK Simplex Optimizer 5.0
4830 rows, 1804 columns, 13288 non-zeros
      0: obj =   6.553600000e+05 inf =   7.830e+02 (428)
   1764: obj =   1.064891528e+06 inf =   1.307e-14 (0) 15
*  2222: obj =   7.536640000e+05 inf =   4.063e-13 (0) 4
OPTIMAL LP SOLUTION FOUND
Integer optimization begins...
Long-step dual simplex will be used
+  2222: mip =     not found yet >=              -inf        (1; 0)
Warning: basis matrix is ill-conditioned (cond = 6.95e+12)
+ 20822: mip =     not found yet >=   7.536640000e+05        (52; 19)
+ 38903: mip =     not found yet >=   7.536640000e+05        (81; 41)
+ 59320: mip =     not found yet >=   7.536640000e+05        (103; 54)
+ 80942: mip =     not found yet >=   7.536640000e+05        (141; 66)
+103244: mip =     not found yet >=   7.536640000e+05        (144; 73)
+119662: mip =     not found yet >=   7.536640000e+05        (155; 75)
+134855: >>>>>   1.114112000e+06 >=   7.536640000e+05  32.4% (212; 82)
+150788: mip =   1.114112000e+06 >=   7.536640000e+05  32.4% (215; 107)
+167037: mip =   1.114112000e+06 >=   7.536640000e+05  32.4% (224; 110)
+172484: >>>>>   1.064960000e+06 >=   7.536640000e+05  29.2% (297; 115)
+190372: mip =   1.064960000e+06 >=   7.536640000e+05  29.2% (312; 145)
Time used: 60.5 secs.  Memory used: 10.3 Mb.
+206367: mip =   1.064960000e+06 >=   7.536640000e+05  29.2% (319; 155)
+222806: >>>>>   1.048576000e+06 >=   7.536640000e+05  28.1% (394; 162)
Solution found by heuristic: 884736
+241109: mip =   8.847360000e+05 >=   7.536640000e+05  14.8% (282; 516)
+257936: mip =   8.847360000e+05 >=   7.536640000e+05  14.8% (287; 524)
+277771: mip =   8.847360000e+05 >=   7.536640000e+05  14.8% (342; 537)
+294288: mip =   8.847360000e+05 >=   7.536640000e+05  14.8% (356; 547)
+313006: mip =   8.847360000e+05 >=   7.536640000e+05  14.8% (400; 573)
+331622: mip =   8.847360000e+05 >=   7.542390000e+05  14.7% (402; 579)
+347130: mip =   8.847360000e+05 >=   7.574220000e+05  14.4% (403; 588)
+364071: mip =   8.847360000e+05 >=   7.602340000e+05  14.1% (418; 611)
+381103: mip =   8.847360000e+05 >=   7.652150000e+05  13.5% (429; 626)
+397835: mip =   8.847360000e+05 >=   7.661030000e+05  13.4% (434; 638)
Time used: 120.9 secs.  Memory used: 12.4 Mb.
+415534: mip =   8.847360000e+05 >=   7.700480000e+05  13.0% (445; 654)
+433337: mip =   8.847360000e+05 >=   7.700480000e+05  13.0% (450; 665)
+450994: mip =   8.847360000e+05 >=   7.700480000e+05  13.0% (453; 694)
+467715: mip =   8.847360000e+05 >=   7.705550000e+05  12.9% (454; 711)
+486955: mip =   8.847360000e+05 >=   7.735660000e+05  12.6% (456; 732)
+504387: mip =   8.847360000e+05 >=   7.771080000e+05  12.2% (471; 754)
+524941: mip =   8.847360000e+05 >=   7.791900000e+05  11.9% (477; 770)
+533628: >>>>>   8.519680000e+05 >=   7.864320000e+05   7.7% (512; 808)
+535814: >>>>>   8.355840000e+05 >=   7.864320000e+05   5.9% (515; 911)
+537367: >>>>>   8.192000000e+05 >=   7.864320000e+05   4.0% (444; 1149)
+556655: mip =   8.192000000e+05 >=   7.864320000e+05   4.0% (207; 2096)
+575925: mip =   8.192000000e+05 >=   7.864320000e+05   4.0% (208; 2606)
+598173: mip =   8.192000000e+05 >=   7.864320000e+05   4.0% (230; 3149)
Time used: 180.9 secs.  Memory used: 14.1 Mb.
+618542: mip =   8.192000000e+05 >=   7.864320000e+05   4.0% (241; 3552)
+635892: mip =   8.192000000e+05 >=   7.864320000e+05   4.0% (261; 4336)
+654713: mip =   8.192000000e+05 >=   7.864320000e+05   4.0% (299; 4884)
+675902: mip =   8.192000000e+05 >=   7.864320000e+05   4.0% (329; 5437)
+695145: mip =   8.192000000e+05 >=   7.864320000e+05   4.0% (356; 5944)
+714350: mip =   8.192000000e+05 >=   7.864320000e+05   4.0% (408; 6389)
+733748: mip =   8.192000000e+05 >=   7.864320000e+05   4.0% (475; 6936)
+752840: mip =   8.192000000e+05 >=   7.864320000e+05   4.0% (528; 7512)
+773043: mip =   8.192000000e+05 >=   7.864320000e+05   4.0% (534; 8092)
+792587: mip =   8.192000000e+05 >=   7.864320000e+05   4.0% (573; 8601)
+812031: mip =   8.192000000e+05 >=   7.864320000e+05   4.0% (589; 9125)
+831764: mip =   8.192000000e+05 >=   7.864320000e+05   4.0% (618; 9826)
Time used: 240.9 secs.  Memory used: 21.0 Mb.
+851213: mip =   8.192000000e+05 >=   7.864320000e+05   4.0% (657; 10127)
+869713: mip =   8.192000000e+05 >=   7.864320000e+05   4.0% (699; 10556)
+889225: mip =   8.192000000e+05 >=   7.864320000e+05   4.0% (733; 11103)
+907796: mip =   8.192000000e+05 >=   7.864320000e+05   4.0% (752; 11767)
+926967: mip =   8.192000000e+05 >=   7.864320000e+05   4.0% (769; 12434)
+945061: mip =   8.192000000e+05 >=   7.864320000e+05   4.0% (802; 12982)
+963977: mip =   8.192000000e+05 >=   7.864320000e+05   4.0% (828; 13452)
+982586: mip =   8.192000000e+05 >=   7.864320000e+05   4.0% (856; 14080)
+1002197: mip =   8.192000000e+05 >=   7.864320000e+05   4.0% (887; 14476)
+1021208: mip =   8.192000000e+05 >=   7.864320000e+05   4.0% (921; 14782)
+1039969: mip =   8.192000000e+05 >=   7.864320000e+05   4.0% (954; 15322)
+1058531: mip =   8.192000000e+05 >=   7.864320000e+05   4.0% (957; 15825)
Time used: 301.0 secs.  Memory used: 28.3 Mb.
+1078128: mip =   8.192000000e+05 >=   7.864320000e+05   4.0% (966; 16311)
+1097201: mip =   8.192000000e+05 >=   7.864320000e+05   4.0% (961; 16861)
+1116666: mip =   8.192000000e+05 >=   7.864320000e+05   4.0% (944; 17544)
+1135636: mip =   8.192000000e+05 >=   7.864320000e+05   4.0% (965; 18281)
+1157503: mip =   8.192000000e+05 >=   7.864320000e+05   4.0% (968; 18876)
+1176662: mip =   8.192000000e+05 >=   7.864320000e+05   4.0% (961; 19576)
+1196372: mip =   8.192000000e+05 >=   7.864320000e+05   4.0% (972; 20076)
+1215647: mip =   8.192000000e+05 >=   7.864320000e+05   4.0% (1004; 20748)
+1234884: mip =   8.192000000e+05 >=   7.864320000e+05   4.0% (1017; 21373)
+1255768: mip =   8.192000000e+05 >=   7.864320000e+05   4.0% (1055; 21948)
+1275200: mip =   8.192000000e+05 >=   7.864320000e+05   4.0% (1051; 22632)
+1293253: mip =   8.192000000e+05 >=   7.864320000e+05   4.0% (1075; 23400)
Time used: 361.0 secs.  Memory used: 34.8 Mb.
+1311795: mip =   8.192000000e+05 >=   7.864320000e+05   4.0% (1086; 24153)
+1330665: mip =   8.192000000e+05 >=   7.864320000e+05   4.0% (1082; 24745)
+1351009: mip =   8.192000000e+05 >=   7.864320000e+05   4.0% (1091; 25401)
+1368664: mip =   8.192000000e+05 >=   7.864320000e+05   4.0% (1139; 26085)
+1387753: mip =   8.192000000e+05 >=   7.864320000e+05   4.0% (1158; 26707)
+1404803: mip =   8.192000000e+05 >=   7.864320000e+05   4.0% (1181; 27511)
+1422866: mip =   8.192000000e+05 >=   7.864320000e+05   4.0% (1190; 28185)
+1440215: mip =   8.192000000e+05 >=   7.864320000e+05   4.0% (1187; 29070)
+1461113: mip =   8.192000000e+05 >=   7.864320000e+05   4.0% (1226; 29637)
+1480904: mip =   8.192000000e+05 >=   7.864320000e+05   4.0% (1266; 30341)
+1500371: mip =   8.192000000e+05 >=   7.864320000e+05   4.0% (1268; 31047)
+1519898: mip =   8.192000000e+05 >=   7.864320000e+05   4.0% (1287; 31840)
Time used: 421.0 secs.  Memory used: 40.6 Mb.
+1540202: mip =   8.192000000e+05 >=   7.864320000e+05   4.0% (1315; 32308)
+1560085: mip =   8.192000000e+05 >=   7.864320000e+05   4.0% (1312; 32869)
+1578659: mip =   8.192000000e+05 >=   7.864320000e+05   4.0% (1329; 33681)
+1599053: mip =   8.192000000e+05 >=   7.864320000e+05   4.0% (1332; 34279)
+1620128: mip =   8.192000000e+05 >=   7.864320000e+05   4.0% (1343; 34729)
+1640055: mip =   8.192000000e+05 >=   7.864320000e+05   4.0% (1351; 35234)
+1658927: mip =   8.192000000e+05 >=   7.864320000e+05   4.0% (1403; 35724)
+1677579: mip =   8.192000000e+05 >=   7.864320000e+05   4.0% (1436; 36447)
+1696581: mip =   8.192000000e+05 >=   7.864320000e+05   4.0% (1457; 37037)
+1713574: mip =   8.192000000e+05 >=   7.864320000e+05   4.0% (1484; 37992)
+1729828: mip =   8.192000000e+05 >=   7.864320000e+05   4.0% (1525; 38901)
+1747068: mip =   8.192000000e+05 >=   7.864320000e+05   4.0% (1542; 39768)
Time used: 481.0 secs.  Memory used: 48.1 Mb.
+1764935: mip =   8.192000000e+05 >=   7.864320000e+05   4.0% (1588; 40518)
+1782023: mip =   8.192000000e+05 >=   7.864320000e+05   4.0% (1588; 41493)
+1799024: mip =   8.192000000e+05 >=   7.864320000e+05   4.0% (1586; 42209)
+1816935: mip =   8.192000000e+05 >=   7.864320000e+05   4.0% (1590; 42931)
+1836790: mip =   8.192000000e+05 >=   7.864320000e+05   4.0% (1639; 43194)
+1855153: mip =   8.192000000e+05 >=   7.864320000e+05   4.0% (1679; 43362)
+1876271: mip =   8.192000000e+05 >=   7.864320000e+05   4.0% (1710; 43552)
+1897946: mip =   8.192000000e+05 >=   7.864320000e+05   4.0% (1755; 43836)
+1919995: mip =   8.192000000e+05 >=   7.864320000e+05   4.0% (1814; 44081)
+1941336: mip =   8.192000000e+05 >=   7.864320000e+05   4.0% (1880; 44246)
+1960199: mip =   8.192000000e+05 >=   7.864320000e+05   4.0% (1963; 44445)
+1983397: mip =   8.192000000e+05 >=   7.864320000e+05   4.0% (2012; 44939)
Time used: 541.0 secs.  Memory used: 55.2 Mb.
+2007566: mip =   8.192000000e+05 >=   7.864320000e+05   4.0% (2038; 45399)
+2024796: mip =   8.192000000e+05 >=   7.864320000e+05   4.0% (2042; 46428)
+2043923: mip =   8.192000000e+05 >=   7.864320000e+05   4.0% (2034; 47199)
+2065451: mip =   8.192000000e+05 >=   7.864320000e+05   4.0% (2084; 47752)
+2089625: mip =   8.192000000e+05 >=   7.864320000e+05   4.0% (2125; 48205)
+2114518: mip =   8.192000000e+05 >=   7.864320000e+05   4.0% (2178; 48532)
+2137140: mip =   8.192000000e+05 >=   7.864320000e+05   4.0% (2231; 49075)
+2160460: mip =   8.192000000e+05 >=   7.864320000e+05   4.0% (2271; 49510)
+2184513: mip =   8.192000000e+05 >=   7.864320000e+05   4.0% (2322; 49917)
+2207575: mip =   8.192000000e+05 >=   7.864320000e+05   4.0% (2379; 50303)
+2230892: mip =   8.192000000e+05 >=   7.864320000e+05   4.0% (2461; 50681)
+2254437: mip =   8.192000000e+05 >=   7.864320000e+05   4.0% (2516; 51084)
Time used: 601.0 secs.  Memory used: 62.7 Mb.
+2278811: mip =   8.192000000e+05 >=   7.864320000e+05   4.0% (2575; 51427)
+2301910: mip =   8.192000000e+05 >=   7.864320000e+05   4.0% (2620; 51818)
+2326527: mip =   8.192000000e+05 >=   7.864320000e+05   4.0% (2660; 52135)
+2351295: mip =   8.192000000e+05 >=   7.864320000e+05   4.0% (2703; 52512)
+2375451: mip =   8.192000000e+05 >=   7.864320000e+05   4.0% (2739; 52831)
+2392305: mip =   8.192000000e+05 >=   7.864320000e+05   4.0% (2754; 52852)
+2415967: mip =   8.192000000e+05 >=   7.865250000e+05   4.0% (2638; 53300)
+2440896: mip =   8.192000000e+05 >=   7.865280000e+05   4.0% (2639; 53482)
+2464364: mip =   8.192000000e+05 >=   7.866180000e+05   4.0% (2603; 53823)
+2483454: mip =   8.192000000e+05 >=   7.872180000e+05   3.9% (2506; 54524)
+2504323: mip =   8.192000000e+05 >=   7.874960000e+05   3.9% (2424; 55418)
Time used: 661.0 secs.  Memory used: 66.2 Mb.
+2523898: mip =   8.192000000e+05 >=   7.878110000e+05   3.8% (2345; 56179)
+2540867: mip =   8.192000000e+05 >=   7.879200000e+05   3.8% (2326; 56350)
+2557801: mip =   8.192000000e+05 >=   7.883070000e+05   3.8% (2087; 58260)
+2577810: mip =   8.192000000e+05 >=   7.893660000e+05   3.6% (1902; 59596)
+2599406: mip =   8.192000000e+05 >=   7.898460000e+05   3.6% (1866; 60205)
+2618564: mip =   8.192000000e+05 >=   7.898460000e+05   3.6% (1888; 60566)
+2639702: mip =   8.192000000e+05 >=   7.905280000e+05   3.5% (1822; 61083)
+2659376: mip =   8.192000000e+05 >=   7.907560000e+05   3.5% (1825; 61315)
+2680697: mip =   8.192000000e+05 >=   7.907560000e+05   3.5% (1845; 61372)
+2704690: mip =   8.192000000e+05 >=   7.907560000e+05   3.5% (1881; 61537)
+2726350: mip =   8.192000000e+05 >=   7.907560000e+05   3.5% (1901; 61597)
+2747886: mip =   8.192000000e+05 >=   7.907560000e+05   3.5% (1945; 61661)
Time used: 721.1 secs.  Memory used: 66.2 Mb.
+2769137: mip =   8.192000000e+05 >=   7.907560000e+05   3.5% (1993; 61714)
Warning: numerical instability (dual simplex, phase I)
Warning: numerical instability (dual simplex, phase I)
Warning: numerical instability (dual simplex, phase I)
Warning: numerical instability (dual simplex, phase I)
Warning: numerical instability (dual simplex, phase I)
Warning: numerical instability (dual simplex, phase I)
+2791582: mip =   8.192000000e+05 >=   7.907560000e+05   3.5% (2046; 61779)
+2815857: mip =   8.192000000e+05 >=   7.907560000e+05   3.5% (2122; 61892)
+2837718: mip =   8.192000000e+05 >=   7.907560000e+05   3.5% (2184; 61926)
+2861922: mip =   8.192000000e+05 >=   7.907560000e+05   3.5% (2254; 61999)
+2885735: mip =   8.192000000e+05 >=   7.907560000e+05   3.5% (2327; 62086)
+2910660: mip =   8.192000000e+05 >=   7.907560000e+05   3.5% (2380; 62223)
+2932328: mip =   8.192000000e+05 >=   7.907560000e+05   3.5% (2443; 62311)
+2956176: mip =   8.192000000e+05 >=   7.907560000e+05   3.5% (2439; 62407)
+2975854: mip =   8.192000000e+05 >=   7.907560000e+05   3.5% (2508; 62625)
+2995286: mip =   8.192000000e+05 >=   7.907560000e+05   3.5% (2522; 63116)
+3013578: mip =   8.192000000e+05 >=   7.907560000e+05   3.5% (2574; 63976)
Time used: 781.1 secs.  Memory used: 66.8 Mb.
+3031640: mip =   8.192000000e+05 >=   7.907560000e+05   3.5% (2598; 64876)
+3051000: mip =   8.192000000e+05 >=   7.907560000e+05   3.5% (2638; 65511)
+3070573: mip =   8.192000000e+05 >=   7.907560000e+05   3.5% (2722; 66178)
+3089965: mip =   8.192000000e+05 >=   7.907560000e+05   3.5% (2776; 66886)
+3110181: mip =   8.192000000e+05 >=   7.907560000e+05   3.5% (2815; 67617)
+3131136: mip =   8.192000000e+05 >=   7.907560000e+05   3.5% (2868; 68196)
+3151551: mip =   8.192000000e+05 >=   7.907560000e+05   3.5% (2907; 68615)
+3171688: mip =   8.192000000e+05 >=   7.907560000e+05   3.5% (2949; 69145)
+3190546: mip =   8.192000000e+05 >=   7.907560000e+05   3.5% (2984; 69837)
+3210530: mip =   8.192000000e+05 >=   7.907560000e+05   3.5% (3012; 70495)
+3229647: mip =   8.192000000e+05 >=   7.907560000e+05   3.5% (3030; 71130)
+3248619: mip =   8.192000000e+05 >=   7.907560000e+05   3.5% (3052; 71934)
Time used: 841.1 secs.  Memory used: 76.1 Mb.
+3267568: mip =   8.192000000e+05 >=   7.907560000e+05   3.5% (3075; 72733)
+3286414: mip =   8.192000000e+05 >=   7.907560000e+05   3.5% (3100; 73475)
+3306866: mip =   8.192000000e+05 >=   7.907560000e+05   3.5% (3138; 73908)
+3326421: mip =   8.192000000e+05 >=   7.907560000e+05   3.5% (3161; 74708)
+3344957: mip =   8.192000000e+05 >=   7.907560000e+05   3.5% (3177; 75528)
+3364652: mip =   8.192000000e+05 >=   7.907560000e+05   3.5% (3198; 76257)
+3385240: mip =   8.192000000e+05 >=   7.907560000e+05   3.5% (3227; 76772)
+3405465: mip =   8.192000000e+05 >=   7.907560000e+05   3.5% (3233; 77566)
+3426434: mip =   8.192000000e+05 >=   7.907560000e+05   3.5% (3272; 78270)
+3445458: mip =   8.192000000e+05 >=   7.907560000e+05   3.5% (3296; 79045)
+3465184: mip =   8.192000000e+05 >=   7.907560000e+05   3.5% (3330; 79734)
+3483097: mip =   8.192000000e+05 >=   7.907560000e+05   3.5% (3358; 80532)
Time used: 901.1 secs.  Memory used: 83.1 Mb.
+3502988: mip =   8.192000000e+05 >=   7.907560000e+05   3.5% (3398; 81204)
+3521573: mip =   8.192000000e+05 >=   7.907560000e+05   3.5% (3429; 81997)
+3540927: mip =   8.192000000e+05 >=   7.907560000e+05   3.5% (3433; 82768)
+3560312: mip =   8.192000000e+05 >=   7.907560000e+05   3.5% (3465; 83360)
+3579618: mip =   8.192000000e+05 >=   7.907560000e+05   3.5% (3478; 83962)
+3599155: mip =   8.192000000e+05 >=   7.907560000e+05   3.5% (3484; 84434)
+3620053: mip =   8.192000000e+05 >=   7.907560000e+05   3.5% (3551; 84943)
+3639445: mip =   8.192000000e+05 >=   7.908590000e+05   3.5% (3556; 85422)
+3659146: mip =   8.192000000e+05 >=   7.908610000e+05   3.5% (3698; 85603)
+3681871: mip =   8.192000000e+05 >=   7.908650000e+05   3.5% (3773; 85793)
+3704880: mip =   8.192000000e+05 >=   7.908730000e+05   3.5% (3936; 86018)
+3729277: mip =   8.192000000e+05 >=   7.909010000e+05   3.5% (3986; 86138)
Time used: 961.2 secs.  Memory used: 91.7 Mb.
+3754327: mip =   8.192000000e+05 >=   7.909350000e+05   3.5% (3976; 86447)
+3776872: mip =   8.192000000e+05 >=   7.909610000e+05   3.4% (4050; 86718)
+3799190: mip =   8.192000000e+05 >=   7.909790000e+05   3.4% (4118; 87057)
+3820518: mip =   8.192000000e+05 >=   7.910090000e+05   3.4% (4162; 87455)
+3843997: mip =   8.192000000e+05 >=   7.910910000e+05   3.4% (4148; 87913)
+3866204: mip =   8.192000000e+05 >=   7.911480000e+05   3.4% (4123; 88412)
+3887119: mip =   8.192000000e+05 >=   7.913040000e+05   3.4% (4104; 89018)
+3907385: mip =   8.192000000e+05 >=   7.913650000e+05   3.4% (3976; 89937)
+3928423: mip =   8.192000000e+05 >=   7.913750000e+05   3.4% (3961; 90192)
+3947225: mip =   8.192000000e+05 >=   7.913800000e+05   3.4% (4021; 90567)
+3971186: mip =   8.192000000e+05 >=   7.913800000e+05   3.4% (4123; 90786)
+3992156: mip =   8.192000000e+05 >=   7.913800000e+05   3.4% (4159; 90852)
Time used: 1021.2 secs.  Memory used: 99.8 Mb.
+4014214: mip =   8.192000000e+05 >=   7.913800000e+05   3.4% (4233; 90951)
+4035021: mip =   8.192000000e+05 >=   7.913800000e+05   3.4% (4284; 91070)
+4058922: mip =   8.192000000e+05 >=   7.913800000e+05   3.4% (4377; 91189)
+4077609: mip =   8.192000000e+05 >=   7.913950000e+05   3.4% (4397; 91238)
+4100330: mip =   8.192000000e+05 >=   7.914030000e+05   3.4% (4378; 91419)
+4120691: mip =   8.192000000e+05 >=   7.914290000e+05   3.4% (4439; 91815)
+4135705: mip =   8.192000000e+05 >=   7.914610000e+05   3.4% (4243; 93137)
+4153525: mip =   8.192000000e+05 >=   7.914610000e+05   3.4% (4194; 94037)
+4170444: mip =   8.192000000e+05 >=   7.914760000e+05   3.4% (4055; 95141)
+4193274: mip =   8.192000000e+05 >=   7.915030000e+05   3.4% (4052; 95652)
+4217547: mip =   8.192000000e+05 >=   7.916470000e+05   3.4% (3900; 96475)
+4237922: mip =   8.192000000e+05 >=   7.917800000e+05   3.3% (3719; 97437)
Time used: 1081.2 secs.  Memory used: 104.7 Mb.
+4258627: mip =   8.192000000e+05 >=   7.919770000e+05   3.3% (3538; 98670)
+4278925: mip =   8.192000000e+05 >=   7.924350000e+05   3.3% (3308; 100152)
+4297721: mip =   8.192000000e+05 >=   7.932590000e+05   3.2% (3083; 101712)
+4315617: mip =   8.192000000e+05 >=   7.945350000e+05   3.0% (2921; 102577)
+4333682: mip =   8.192000000e+05 >=   7.988350000e+05   2.5% (2788; 103601)
+4349629: mip =   8.192000000e+05 >=   7.998380000e+05   2.4% (2663; 104970)
+4363255: mip =   8.192000000e+05 >=   7.998380000e+05   2.4% (2510; 106750)
+4379968: mip =   8.192000000e+05 >=   7.998380000e+05   2.4% (2432; 108194)
+4397308: mip =   8.192000000e+05 >=   8.016870000e+05   2.1% (2342; 109581)
+4412980: mip =   8.192000000e+05 >=   8.028160000e+05   2.0% (1976; 112192)
+4430085: mip =   8.192000000e+05 >=   8.028160000e+05   2.0% (1839; 113606)
+4445892: mip =   8.192000000e+05 >=   8.028160000e+05   2.0% (1658; 115616)
Time used: 1141.2 secs.  Memory used: 104.7 Mb.
+4460547: mip =   8.192000000e+05 >=   8.028160000e+05   2.0% (1477; 117659)
+4477459: mip =   8.192000000e+05 >=   8.028160000e+05   2.0% (1356; 119395)
+4494068: mip =   8.192000000e+05 >=   8.028160000e+05   2.0% (1200; 121433)
+4509926: mip =   8.192000000e+05 >=   8.028160000e+05   2.0% (1127; 123048)
+4525211: mip =   8.192000000e+05 >=   8.028160000e+05   2.0% (1030; 124970)
+4541206: mip =   8.192000000e+05 >=   8.028160000e+05   2.0% (948; 126690)
+4557438: mip =   8.192000000e+05 >=   8.028160000e+05   2.0% (866; 128520)
+4575217: mip =   8.192000000e+05 >=   8.028160000e+05   2.0% (810; 129982)
+4593385: mip =   8.192000000e+05 >=   8.028160000e+05   2.0% (773; 131298)
+4612762: mip =   8.192000000e+05 >=   8.028160000e+05   2.0% (754; 132540)
+4631540: mip =   8.192000000e+05 >=   8.028160000e+05   2.0% (782; 133285)
+4650598: mip =   8.192000000e+05 >=   8.028160000e+05   2.0% (780; 134033)
Time used: 1201.2 secs.  Memory used: 104.7 Mb.
+4669711: mip =   8.192000000e+05 >=   8.028160000e+05   2.0% (732; 135185)
+4686032: mip =   8.192000000e+05 >=   8.028160000e+05   2.0% (690; 136627)
+4704642: mip =   8.192000000e+05 >=   8.028160000e+05   2.0% (631; 138067)
+4723347: mip =   8.192000000e+05 >=   8.028160000e+05   2.0% (644; 139144)
+4742175: mip =   8.192000000e+05 >=   8.028160000e+05   2.0% (629; 140307)
+4761779: mip =   8.192000000e+05 >=   8.028160000e+05   2.0% (662; 141244)
+4782013: mip =   8.192000000e+05 >=   8.028160000e+05   2.0% (647; 142167)
+4801350: mip =   8.192000000e+05 >=   8.028160000e+05   2.0% (629; 143093)
+4821468: mip =   8.192000000e+05 >=   8.028160000e+05   2.0% (644; 144005)
+4839800: mip =   8.192000000e+05 >=   8.028160000e+05   2.0% (644; 144848)
+4858135: mip =   8.192000000e+05 >=   8.028160000e+05   2.0% (652; 145874)
+4879448: mip =   8.192000000e+05 >=   8.028160000e+05   2.0% (697; 146641)
Time used: 1261.2 secs.  Memory used: 104.7 Mb.
+4899554: mip =   8.192000000e+05 >=   8.028160000e+05   2.0% (701; 147588)
+4921150: mip =   8.192000000e+05 >=   8.028160000e+05   2.0% (686; 148330)
+4939769: mip =   8.192000000e+05 >=   8.055470000e+05   1.7% (537; 149681)
+4953975: mip =   8.192000000e+05 >=   8.060930000e+05   1.6% (389; 151147)
+4966943: mip =   8.192000000e+05 >=   8.060930000e+05   1.6% (293; 152978)
+4979907: mip =   8.192000000e+05 >=   8.060930000e+05   1.6% (250; 154735)
+4999551: mip =   8.192000000e+05 >=   8.062300000e+05   1.6% (289; 155256)
+5019252: mip =   8.192000000e+05 >=   8.062300000e+05   1.6% (309; 155832)
+5039972: mip =   8.192000000e+05 >=   8.062300000e+05   1.6% (272; 156542)
+5059586: mip =   8.192000000e+05 >=   8.062300000e+05   1.6% (280; 157295)
+5080614: mip =   8.192000000e+05 >=   8.062300000e+05   1.6% (270; 157782)
+5101836: mip =   8.192000000e+05 >=   8.062300000e+05   1.6% (340; 158106)
Time used: 1321.8 secs.  Memory used: 104.7 Mb.
+5122745: mip =   8.192000000e+05 >=   8.062300000e+05   1.6% (349; 158438)
+5141173: mip =   8.192000000e+05 >=   8.062300000e+05   1.6% (327; 159459)
+5161370: mip =   8.192000000e+05 >=   8.062300000e+05   1.6% (368; 160043)
+5176036: mip =   8.192000000e+05 >=   8.062300000e+05   1.6% (378; 161239)
+5193072: mip =   8.192000000e+05 >=   8.062300000e+05   1.6% (377; 162337)
+5207863: mip =   8.192000000e+05 >=   8.062300000e+05   1.6% (386; 163616)
+5221922: mip =   8.192000000e+05 >=   8.062300000e+05   1.6% (383; 164970)
+5238482: mip =   8.192000000e+05 >=   8.062300000e+05   1.6% (365; 166220)
+5257600: mip =   8.192000000e+05 >=   8.062300000e+05   1.6% (383; 167047)
+5276455: mip =   8.192000000e+05 >=   8.062300000e+05   1.6% (383; 168005)
+5294727: mip =   8.192000000e+05 >=   8.062300000e+05   1.6% (392; 168900)
+5312104: mip =   8.192000000e+05 >=   8.062300000e+05   1.6% (393; 170070)
Time used: 1381.8 secs.  Memory used: 104.7 Mb.
+5327936: mip =   8.192000000e+05 >=   8.062300000e+05   1.6% (388; 171275)
+5344482: mip =   8.192000000e+05 >=   8.062300000e+05   1.6% (389; 172570)
+5361576: mip =   8.192000000e+05 >=   8.062300000e+05   1.6% (398; 173739)
+5379094: mip =   8.192000000e+05 >=   8.062300000e+05   1.6% (394; 174919)
+5396349: mip =   8.192000000e+05 >=   8.062300000e+05   1.6% (395; 176178)
+5411959: mip =   8.192000000e+05 >=   8.062300000e+05   1.6% (400; 177419)
+5430943: mip =   8.192000000e+05 >=   8.062300000e+05   1.6% (425; 178223)
+5449776: mip =   8.192000000e+05 >=   8.062300000e+05   1.6% (452; 178979)
+5469296: mip =   8.192000000e+05 >=   8.062300000e+05   1.6% (459; 179706)
+5489845: mip =   8.192000000e+05 >=   8.062300000e+05   1.6% (467; 180410)
+5506683: mip =   8.192000000e+05 >=   8.062300000e+05   1.6% (451; 181472)
+5525244: mip =   8.192000000e+05 >=   8.062300000e+05   1.6% (419; 182627)
Time used: 1441.8 secs.  Memory used: 104.7 Mb.
+5546207: mip =   8.192000000e+05 >=   8.062300000e+05   1.6% (431; 183208)
+5562531: mip =   8.192000000e+05 >=   8.062300000e+05   1.6% (420; 184431)
+5578911: mip =   8.192000000e+05 >=   8.062300000e+05   1.6% (429; 185577)
+5593798: mip =   8.192000000e+05 >=   8.062300000e+05   1.6% (430; 186841)
+5615066: mip =   8.192000000e+05 >=   8.062300000e+05   1.6% (420; 187741)
+5634433: mip =   8.192000000e+05 >=   8.062300000e+05   1.6% (418; 188475)
+5654782: mip =   8.192000000e+05 >=   8.062300000e+05   1.6% (419; 189230)
+5672637: mip =   8.192000000e+05 >=   8.062300000e+05   1.6% (449; 190014)
+5690974: mip =   8.192000000e+05 >=   8.062300000e+05   1.6% (451; 190939)
+5708887: mip =   8.192000000e+05 >=   8.062300000e+05   1.6% (464; 191852)
+5727775: mip =   8.192000000e+05 >=   8.062300000e+05   1.6% (472; 192690)
+5745251: mip =   8.192000000e+05 >=   8.062300000e+05   1.6% (465; 193709)
Time used: 1501.8 secs.  Memory used: 104.7 Mb.
+5763252: mip =   8.192000000e+05 >=   8.062300000e+05   1.6% (474; 194642)
+5781422: mip =   8.192000000e+05 >=   8.062300000e+05   1.6% (472; 195659)
+5798471: mip =   8.192000000e+05 >=   8.062300000e+05   1.6% (472; 196726)
+5815550: mip =   8.192000000e+05 >=   8.062300000e+05   1.6% (482; 197704)
+5831566: mip =   8.192000000e+05 >=   8.062300000e+05   1.6% (483; 198851)
+5848016: mip =   8.192000000e+05 >=   8.062300000e+05   1.6% (473; 200029)
+5865105: mip =   8.192000000e+05 >=   8.062300000e+05   1.6% (472; 201115)
+5881319: mip =   8.192000000e+05 >=   8.062300000e+05   1.6% (471; 202345)
+5899800: mip =   8.192000000e+05 >=   8.062300000e+05   1.6% (477; 203259)
+5918519: mip =   8.192000000e+05 >=   8.062300000e+05   1.6% (484; 204061)
+5938547: mip =   8.192000000e+05 >=   8.062300000e+05   1.6% (485; 204808)
+5955900: mip =   8.192000000e+05 >=   8.062300000e+05   1.6% (490; 205712)
Time used: 1561.8 secs.  Memory used: 104.7 Mb.
+5974361: mip =   8.192000000e+05 >=   8.062300000e+05   1.6% (471; 206622)
+5993600: mip =   8.192000000e+05 >=   8.062300000e+05   1.6% (469; 207508)
+6011760: mip =   8.192000000e+05 >=   8.062300000e+05   1.6% (475; 208393)
+6032338: mip =   8.192000000e+05 >=   8.062300000e+05   1.6% (470; 209124)
+6052596: mip =   8.192000000e+05 >=   8.062300000e+05   1.6% (469; 209718)
+6069698: mip =   8.192000000e+05 >=   8.062300000e+05   1.6% (474; 210691)
+6088107: mip =   8.192000000e+05 >=   8.062300000e+05   1.6% (479; 211623)
+6106769: mip =   8.192000000e+05 >=   8.062300000e+05   1.6% (458; 212569)
+6123578: mip =   8.192000000e+05 >=   8.062300000e+05   1.6% (465; 213588)
+6141441: mip =   8.192000000e+05 >=   8.062300000e+05   1.6% (450; 214721)
+6159299: mip =   8.192000000e+05 >=   8.062300000e+05   1.6% (459; 215719)
+6175449: mip =   8.192000000e+05 >=   8.062300000e+05   1.6% (451; 216890)
Time used: 1621.8 secs.  Memory used: 104.7 Mb.
+6193008: mip =   8.192000000e+05 >=   8.062300000e+05   1.6% (471; 217866)
+6210279: mip =   8.192000000e+05 >=   8.062300000e+05   1.6% (472; 218992)
+6228082: mip =   8.192000000e+05 >=   8.062300000e+05   1.6% (461; 220109)
+6245634: mip =   8.192000000e+05 >=   8.062300000e+05   1.6% (453; 221247)
+6262680: mip =   8.192000000e+05 >=   8.062300000e+05   1.6% (451; 222304)
+6279213: mip =   8.192000000e+05 >=   8.062300000e+05   1.6% (462; 223342)
+6295614: mip =   8.192000000e+05 >=   8.062300000e+05   1.6% (445; 224521)
+6313959: mip =   8.192000000e+05 >=   8.062300000e+05   1.6% (473; 225290)
+6328945: mip =   8.192000000e+05 >=   8.062300000e+05   1.6% (468; 226474)
+6346323: mip =   8.192000000e+05 >=   8.062300000e+05   1.6% (471; 227496)
+6364222: mip =   8.192000000e+05 >=   8.062300000e+05   1.6% (451; 228448)
+6381633: mip =   8.192000000e+05 >=   8.062300000e+05   1.6% (464; 229432)
Time used: 1681.8 secs.  Memory used: 104.7 Mb.
+6400416: mip =   8.192000000e+05 >=   8.062300000e+05   1.6% (484; 230168)
+6419697: mip =   8.192000000e+05 >=   8.062300000e+05   1.6% (492; 231020)
+6440585: mip =   8.192000000e+05 >=   8.062300000e+05   1.6% (491; 231867)
+6461955: mip =   8.192000000e+05 >=   8.062300000e+05   1.6% (484; 232624)
+6482050: mip =   8.192000000e+05 >=   8.062300000e+05   1.6% (502; 233334)
+6500362: mip =   8.192000000e+05 >=   8.062300000e+05   1.6% (513; 234192)
+6519701: mip =   8.192000000e+05 >=   8.062300000e+05   1.6% (512; 235132)
+6541713: mip =   8.192000000e+05 >=   8.062300000e+05   1.6% (517; 235824)
+6561130: mip =   8.192000000e+05 >=   8.062300000e+05   1.6% (516; 236856)
+6581009: mip =   8.192000000e+05 >=   8.062300000e+05   1.6% (526; 237854)
+6599630: mip =   8.192000000e+05 >=   8.062300000e+05   1.6% (527; 238892)
+6618013: mip =   8.192000000e+05 >=   8.062300000e+05   1.6% (496; 240092)
Time used: 1741.8 secs.  Memory used: 104.7 Mb.
+6635715: mip =   8.192000000e+05 >=   8.062300000e+05   1.6% (493; 241195)
+6654153: mip =   8.192000000e+05 >=   8.062300000e+05   1.6% (483; 242160)
+6674304: mip =   8.192000000e+05 >=   8.062300000e+05   1.6% (474; 242858)
+6694630: mip =   8.192000000e+05 >=   8.062300000e+05   1.6% (475; 243641)
+6716068: mip =   8.192000000e+05 >=   8.062300000e+05   1.6% (456; 244364)
+6734113: mip =   8.192000000e+05 >=   8.062300000e+05   1.6% (449; 245334)
+6751784: mip =   8.192000000e+05 >=   8.062300000e+05   1.6% (452; 246180)
+6769844: mip =   8.192000000e+05 >=   8.062300000e+05   1.6% (446; 247224)
+6786681: mip =   8.192000000e+05 >=   8.062300000e+05   1.6% (452; 248234)
+6803239: mip =   8.192000000e+05 >=   8.062300000e+05   1.6% (469; 249283)
+6819098: mip =   8.192000000e+05 >=   8.062300000e+05   1.6% (477; 250332)
